NAME : C4.733127.tour
COMMENT : Length = 733127
COMMENT : Found by LKH [Keld Helsgaun] Sun Dec 17 17:02:02 2017
TYPE : TOUR
DIMENSION : 162
TOUR_SECTION
1
139
13
110
151
81
69
122
30
25
135
55
131
56
26
153
59
41
22
74
73
75
76
134
23
42
146
116
3
58
16
44
152
28
128
32
89
149
63
124
20
108
12
162
133
70
2
102
71
31
123
52
21
129
132
33
91
64
127
109
11
155
147
53
107
8
83
49
125
48
37
144
50
65
157
29
77
117
78
4
80
130
79
35
136
36
137
66
156
148
7
97
100
105
60
94
86
62
114
18
158
54
106
27
150
111
5
140
40
57
24
68
154
113
14
138
88
145
43
143
15
120
45
141
39
161
112
51
103
34
82
121
10
104
72
67
160
90
19
84
61
119
6
85
46
126
115
9
47
159
95
96
118
98
93
99
38
101
92
17
142
87
-1
EOF
